
Presolve eliminates 3320 constraints and 2528 variables.
Adjusted problem:
38672 variables:
	38272 binary variables
	400 linear variables
38790 constraints, all linear; 327172 nonzeros
	902 equality constraints
	37888 inequality constraints
1 linear objective; 37872 nonzeros.

Gurobi 9.1.2: mipgap 0.01
outlev 1
timelim 3600
Gurobi Optimizer version 9.1.2 build v9.1.2rc0 (linux64)
Thread count: 4 physical cores, 4 logical processors, using up to 4 threads
Optimize a model with 38790 rows, 38672 columns and 327172 nonzeros
Model fingerprint: 0x7c43b9eb
Variable types: 400 continuous, 38272 integer (38272 binary)
Coefficient statistics:
  Matrix range     [3e-02, 4e+02]
  Objective range  [4e+01, 2e+04]
  Bounds range     [1e+00, 4e+02]
  RHS range        [1e+00, 4e+02]
Presolve removed 800 rows and 0 columns
Presolve time: 1.00s
Presolved: 37990 rows, 38672 columns, 215144 nonzeros
Variable types: 400 continuous, 38272 integer (38272 binary)

Deterministic concurrent LP optimizer: primal and dual simplex
Showing first log only...

Concurrent spin time: 0.00s

Solved with dual simplex

Root relaxation: objective 4.358000e+03, 9500 iterations, 2.98 seconds
Total elapsed time = 5.04s

    Nodes    |    Current Node    |     Objective Bounds      |     Work
 Expl Unexpl |  Obj  Depth IntInf | Incumbent    BestBd   Gap | It/Node Time

     0     0 4358.00000    0  366          - 4358.00000      -     -    5s
H    0     0                    4662.0000000 4358.00000  6.52%     -   13s
H    0     0                    4659.0000000 4358.00000  6.46%     -   14s
     0     0 4358.00000    0  367 4659.00000 4358.00000  6.46%     -   17s
     0     0 4358.08000    0  345 4659.00000 4358.08000  6.46%     -   20s
     0     0 4358.08000    0  373 4659.00000 4358.08000  6.46%     -   23s
     0     0 4360.00000    0  381 4659.00000 4360.00000  6.42%     -   28s
     0     0 4360.00000    0  374 4659.00000 4360.00000  6.42%     -   29s
     0     0 4360.00000    0  332 4659.00000 4360.00000  6.42%     -   30s
H    0     0                    4644.0000000 4360.00000  6.12%     -   30s
     0     0 4360.00000    0  346 4644.00000 4360.00000  6.12%     -   30s
     0     0 4360.02625    0  382 4644.00000 4360.02625  6.11%     -   31s
     0     0 4360.50000    0  367 4644.00000 4360.50000  6.10%     -   31s
     0     0 4360.50000    0  363 4644.00000 4360.50000  6.10%     -   31s
     0     0 4361.56000    0  475 4644.00000 4361.56000  6.08%     -   32s
H    0     0                    4632.0000000 4361.56000  5.84%     -   39s
H    0     0                    4626.0000000 4361.56000  5.72%     -   43s
     0     0 4364.48625    0  407 4626.00000 4364.48625  5.65%     -   43s
     0     0 4364.48625    0  415 4626.00000 4364.48625  5.65%     -   43s
     0     0 4370.73629    0  429 4626.00000 4370.73629  5.52%     -   43s
     0     0 4371.48629    0  401 4626.00000 4371.48629  5.50%     -   44s
     0     0 4371.48629    0  423 4626.00000 4371.48629  5.50%     -   44s
     0     0 4382.26042    0  393 4626.00000 4382.26042  5.27%     -   44s
     0     0 4382.80229    0  417 4626.00000 4382.80229  5.26%     -   45s
     0     0 4382.80229    0  406 4626.00000 4382.80229  5.26%     -   45s
     0     0 4384.76139    0  402 4626.00000 4384.76139  5.21%     -   45s
     0     0 4384.76139    0  406 4626.00000 4384.76139  5.21%     -   45s
     0     0 4390.33333    0  467 4626.00000 4390.33333  5.09%     -   46s
     0     0 4390.61905    0  413 4626.00000 4390.61905  5.09%     -   46s
     0     0 4390.70833    0  416 4626.00000 4390.70833  5.09%     -   46s
     0     0 4391.16667    0  418 4626.00000 4391.16667  5.08%     -   47s
     0     0 4391.16667    0  422 4626.00000 4391.16667  5.08%     -   47s
     0     0 4391.89208    0  441 4626.00000 4391.89208  5.06%     -   47s
     0     0 4391.92371    0  442 4626.00000 4391.92371  5.06%     -   48s
     0     0 4391.92371    0  442 4626.00000 4391.92371  5.06%     -   48s
     0     0 4394.55250    0  415 4626.00000 4394.55250  5.00%     -   48s
     0     0 4394.56840    0  414 4626.00000 4394.56840  5.00%     -   49s
     0     0 4394.56840    0  414 4626.00000 4394.56840  5.00%     -   49s
     0     0 4397.24275    0  409 4626.00000 4397.24275  4.95%     -   49s
     0     0 4397.24275    0  424 4626.00000 4397.24275  4.95%     -   50s
     0     0 4397.91667    0  403 4626.00000 4397.91667  4.93%     -   50s
     0     0 4397.91667    0  396 4626.00000 4397.91667  4.93%     -   51s
     0     0 4398.69042    0  456 4626.00000 4398.69042  4.91%     -   51s
     0     0 4398.69042    0  444 4626.00000 4398.69042  4.91%     -   52s
     0     0 4399.69042    0  519 4626.00000 4399.69042  4.89%     -   53s
     0     0 4399.69784    0  408 4626.00000 4399.69784  4.89%     -   54s
     0     0 4402.16667    0  472 4626.00000 4402.16667  4.84%     -   56s
     0     0 4402.16667    0  438 4626.00000 4402.16667  4.84%     -   59s
     0     0 4403.61111    0  451 4626.00000 4403.61111  4.81%     -   60s
     0     0 4403.66667    0  446 4626.00000 4403.66667  4.81%     -   60s
     0     0 4403.66667    0  446 4626.00000 4403.66667  4.81%     -   61s
     0     0 4403.66667    0  477 4626.00000 4403.66667  4.81%     -   61s
     0     0 4403.66667    0  294 4626.00000 4403.66667  4.81%     -   70s
     0     2 4406.27778    0  280 4626.00000 4406.27778  4.75%     -   77s
     3     8 4406.27778    2  359 4626.00000 4406.27778  4.75%   486   85s
    19    22 4406.27778    6  315 4626.00000 4406.27778  4.75%   207   90s
    77   102 4406.27778   14  290 4626.00000 4406.27778  4.75%  81.2  116s
H   79   102                    4597.0000000 4406.27778  4.15%  79.1  116s
   103   195 4406.27778   16  290 4597.00000 4406.27778  4.15%  65.7  122s
   196   246 4406.27778   34  249 4597.00000 4406.27778  4.15%  47.8  126s
   316   365 4408.54750   54  210 4597.00000 4406.27778  4.15%  42.4  132s
   418   476 4409.04750   76  209 4597.00000 4406.27778  4.15%  42.2  136s
   531   588 4414.24176   94  233 4597.00000 4406.27778  4.15%  40.5  140s
   590   596 4416.94697  102  235 4597.00000 4406.27778  4.15%  41.0  153s
H  591   596                    4596.0000000 4406.27778  4.13%  40.9  153s
   598   660 4417.10853  104  241 4596.00000 4406.27778  4.13%  40.9  156s
   722   789 4418.46877  140  225 4596.00000 4406.27778  4.13%  39.6  160s
   854   924 4424.69940  174  296 4596.00000 4406.27778  4.13%  37.7  167s
   927   990 4426.17887  194  227 4596.00000 4406.27778  4.13%  37.2  170s
  1073  1149 4427.49478  239  229 4596.00000 4406.27778  4.13%  37.9  177s
  1153  1240 4428.02577  260  211 4596.00000 4406.27778  4.13%  36.9  180s
  1338  1449 4429.09296  309  267 4596.00000 4406.27778  4.13%  35.2  187s
  1453  1565 4429.32410  337  261 4596.00000 4406.27778  4.13%  34.3  191s
  1691  1788 4430.27170  390  250 4596.00000 4406.27778  4.13%  32.7  198s
  1794  1902 4430.59081  421  277 4596.00000 4406.27778  4.13%  32.6  201s
  1910  2012 4449.99862  446  254 4596.00000 4406.27778  4.13%  32.5  205s
H 2021  2016                    4563.0000000 4406.27778  3.43%  32.6  217s
  2025  2141 4450.51265  471  243 4563.00000 4406.27778  3.43%  32.6  221s
  2150  2257 4450.98685  499  222 4563.00000 4406.27778  3.43%  32.1  228s
  2292  2353 4451.34008  517  188 4563.00000 4406.27778  3.43%  31.9  235s
  2388  2456 4452.80944  536  255 4563.00000 4406.27778  3.43%  32.4  243s
  2492  2557 4553.24254  545  257 4563.00000 4406.27778  3.43%  33.3  251s
  2620  2675 4406.27778    5  393 4563.00000 4406.27778  3.43%  34.1  257s
  2741  2827 4406.27778   23  358 4563.00000 4406.27778  3.43%  35.2  264s
  2909  3009 4407.18827   42  343 4563.00000 4406.27778  3.43%  35.8  274s
  3091  3257 4410.75000   54  307 4563.00000 4406.27778  3.43%  36.2  285s
  3340  3503 4415.79125   80  270 4563.00000 4406.27778  3.43%  35.5  298s
  3586  3762 4428.82863  109  237 4563.00000 4406.27778  3.43%  35.3  307s
  3849  4087 4436.09250  158  235 4563.00000 4406.27778  3.43%  34.5  320s
  4174  4406 4439.73683  266  260 4563.00000 4406.27778  3.43%  32.9  333s
  4494  4669 4496.17832  373  194 4563.00000 4406.27778  3.43%  31.9  347s
  4764  4945 4498.89197  466  266 4563.00000 4406.27778  3.43%  31.7  362s
  5068  5197 4507.53699  579  225 4563.00000 4406.27778  3.43%  31.7  376s
  5372  5198 4410.61955   83  367 4563.00000 4406.27778  3.43%  32.1  418s
  5374  5199 4411.55452   57  344 4563.00000 4406.27778  3.43%  32.1  440s
H 5374  4939                    4557.0000000 4406.27778  3.31%  32.1  468s
  5376  4941 4410.29750   72  546 4557.00000 4406.27778  3.31%  32.1  472s
  5377  4941 4422.87500   97  440 4557.00000 4406.27778  3.31%  32.1  476s
  5381  4944 4470.13255  368  408 4557.00000 4406.27778  3.31%  32.0  484s
  5382  4945 4500.06661  392  486 4557.00000 4406.27778  3.31%  32.0  501s
H 5382  4697                    4554.0000000 4406.27778  3.24%  32.0  503s
  5383  4697 4551.55667  510  561 4554.00000 4406.27778  3.24%  32.0  509s
  5384  4698 4431.70125  176  518 4554.00000 4406.27778  3.24%  32.0  511s
  5385  4699 4476.48177  550  471 4554.00000 4406.27778  3.24%  32.0  515s
  5386  4699 4495.42434  357  274 4554.00000 4406.27778  3.24%  32.0  527s
  5387  4700 4463.39847  506  353 4554.00000 4406.27778  3.24%  32.0  533s
  5388  4701 4502.16758  926  270 4554.00000 4406.27778  3.24%  32.0  550s
  5389  4701 4539.37781  441  590 4554.00000 4406.27778  3.24%  32.0  559s
  5390  4702 4429.16437  131  554 4554.00000 4406.27778  3.24%  32.0  565s
  5391  4703 4462.94908  486  509 4554.00000 4406.27778  3.24%  32.0  571s
  5392  4703 4504.91320  439  509 4554.00000 4406.27778  3.24%  32.0  577s
  5393  4704 4426.18540  330  580 4554.00000 4406.27778  3.24%  32.0  583s
  5394  4705 4495.95323  313  564 4554.00000 4406.27778  3.24%  32.0  585s
  5395  4705 4506.20471  430  561 4554.00000 4406.27778  3.24%  32.0  591s
  5396  4706 4444.82236  394  634 4554.00000 4406.38941  3.24%  32.0  599s
  5397  4707 4495.46354  633  643 4554.00000 4406.51750  3.24%  31.9  645s
H 5397  4471                    4543.0000000 4406.51750  3.00%  31.9  651s
  5399  4472 4543.00000  477  702 4543.00000 4406.52430  3.00%  31.9  660s
  5400  4473 4543.00000  615  675 4543.00000 4406.79489  3.00%  31.9  674s
  5401  4473 4411.00000   50  581 4543.00000 4407.00000  2.99%  31.9  681s
  5402  4474 4509.15824  536  644 4543.00000 4407.24892  2.99%  31.9  695s
  5403  4475 4461.49047  420  656 4543.00000 4407.58000  2.98%  31.9  705s
  5404  4475 4407.61210    8  734 4543.00000 4407.61210  2.98%  31.9  722s
  5405  4476 4506.58216  377  752 4543.00000 4407.61210  2.98%  31.9  744s
  5406  4477 4412.83690   99  630 4543.00000 4407.61210  2.98%  31.9  760s
H 5406  4253                    4542.0000000 4407.61210  2.96%  31.9  780s
  5408  4254 4429.94558  116  680 4542.00000 4407.63525  2.96%  31.9  790s
  5409  4255 4413.29599  102  699 4542.00000 4407.63672  2.96%  31.9  862s
  5410  4255 4471.82529  417  703 4542.00000 4407.63672  2.96%  31.9  884s
  5411  4256 4415.72927  134  742 4542.00000 4407.70867  2.96%  31.9 1018s
H 5411  4042                    4538.0000000 4407.70867  2.87%  31.9 1031s
H 5411  3840                    4532.0000000 4407.70867  2.74%  31.9 1075s
H 5411  3647                    4530.0000000 4407.70867  2.70%  31.9 1075s
  5413  3648 4501.66958  923  616 4530.00000 4407.92162  2.69%  31.9 1090s
H 5413  3465                    4529.0000000 4407.92162  2.67%  31.9 1094s
  5414  3466 4509.09429 1034  704 4529.00000 4407.98550  2.67%  31.8 1096s
  5415  3467 4418.86456  186  784 4529.00000 4407.98835  2.67%  31.8 1107s
  5416  3467 4428.08550  248  785 4529.00000 4407.98835  2.67%  31.8 1126s
  5417  3468 4418.52375   42  706 4529.00000 4407.98911  2.67%  31.8 1134s
  5418  3469 4410.75000   59  720 4529.00000 4407.98911  2.67%  31.8 1151s
H 5418  3295                    4522.0000000 4407.98992  2.52%  31.8 1165s
H 5419  3129                    4520.0000000 4407.98992  2.48%  31.8 1169s
  5420  3130 4422.78560  204  696 4520.00000 4407.99105  2.48%  31.8 1181s
  5421  3131 4499.67193  333  714 4520.00000 4407.99105  2.48%  31.8 1222s
  5422  3131 4411.00000   52  534 4520.00000 4407.99105  2.48%  31.8 1236s
  5423  3132 4520.00000  505  534 4520.00000 4407.99105  2.48%  31.8 1272s
  5424  3136 4407.99261   13  531 4520.00000 4407.99105  2.48%  39.2 1328s
  5426  3139 4408.00000   14  504 4520.00000 4408.00000  2.48%  39.3 1400s
  5430  3142 4408.00000   15  441 4520.00000 4408.00000  2.48%  39.7 1416s
  5434  3144 4408.39500   15  544 4520.00000 4408.00000  2.48%  40.1 1429s
  5438  3147 4408.00000   16  435 4520.00000 4408.00000  2.48%  40.9 1434s
  5442  3150 4408.00000   16  487 4520.00000 4408.00000  2.48%  41.3 1436s
H 5453  3000                    4514.0000000 4408.00000  2.35%  41.7 1469s
  5457  3006 4408.00000   18  359 4514.00000 4408.00000  2.35%  42.0 1472s
  5464  3015 4408.00000   19  449 4514.00000 4408.00000  2.35%  42.1 1475s
  5476  3031 4409.29409   20  559 4514.00000 4408.00000  2.35%  42.7 1485s
  5496  3069 4408.00000   21  421 4514.00000 4408.00000  2.35%  42.8 1495s
  5540  3069 4408.97165   25  494 4514.00000 4408.00000  2.35%  43.8 1511s
H 5545  2917                    4508.0000000 4408.00000  2.22%  44.1 1511s
  5555  2930 4409.02250   27  347 4508.00000 4408.00000  2.22%  44.5 1529s
  5571  3005 4409.02250   28  340 4508.00000 4408.00000  2.22%  44.7 1550s
  5651  3062 4409.18042   33  375 4508.00000 4408.00000  2.22%  46.1 1565s
  5735  3068 4410.76937   42  355 4508.00000 4408.00000  2.22%  47.0 1578s
H 5749  2921                    4505.0000000 4408.00000  2.15%  47.3 1578s
  5769  2979 4412.55947   46  302 4505.00000 4408.00000  2.15%  47.6 1591s
  5833  3014 4413.08106   53  327 4505.00000 4408.00000  2.15%  48.3 1606s
  5890  3062 4412.02765   59  295 4505.00000 4408.00000  2.15%  48.9 1628s
  5957  3051 4412.09879   68  335 4505.00000 4408.00000  2.15%  49.8 1646s
H 5962  2914                    4503.0000000 4408.00000  2.11%  49.9 1646s
  5968  2981 4412.69056   70  312 4503.00000 4408.00000  2.11%  50.1 1672s
  6037  3064 4416.37216   77  361 4503.00000 4408.00000  2.11%  51.1 1696s
  6143  3072 4412.72578   84  396 4503.00000 4408.00000  2.11%  52.2 1716s
  6186  3172 4413.16321   90  396 4503.00000 4408.00000  2.11%  53.0 1745s
  6300  3251 4413.80305   99  424 4503.00000 4408.00000  2.11%  54.4 1769s
  6417  3220 4419.23248  111  268 4503.00000 4408.00000  2.11%  55.3 1795s
  6425  3289 4414.11819  112  388 4503.00000 4408.00000  2.11%  55.5 1816s
  6497  3340 4414.53206  121  406 4503.00000 4408.00000  2.11%  57.0 1835s
  6572  3412 4414.83652  130  386 4503.00000 4408.00000  2.11%  58.2 1853s
  6669  3412 4415.31301  142  385 4503.00000 4408.00000  2.11%  59.5 1873s
  6701  3494 4415.39847  147  400 4503.00000 4408.00000  2.11%  59.7 1887s
  6794  3560 4416.94492  158  282 4503.00000 4408.00000  2.11%  61.1 1905s
  6891  3541 4417.64940  168  329 4503.00000 4408.00000  2.11%  62.5 1925s
  6904  3653 4417.86065  171  323 4503.00000 4408.00000  2.11%  62.8 1945s
  7021  3730 4418.79628  181  396 4503.00000 4408.00000  2.11%  64.4 1963s
  7138  3819 4419.53380  194  323 4503.00000 4408.00000  2.11%  66.2 1979s
  7266  3891 4420.15507  208  326 4503.00000 4408.00000  2.11%  68.0 1996s
  7384  3976 4421.09025  222  336 4503.00000 4408.00000  2.11%  69.7 2032s
  7542  4031 4423.62289  243  211 4503.00000 4408.00000  2.11%  71.8 2060s
  7649  4027 4426.41323  259  333 4503.00000 4408.00000  2.11%  73.4 2116s
H 7664  3893                    4500.0000000 4408.00000  2.04%  73.7 2116s
  7681  4023 4435.19156  263  341 4500.00000 4408.00000  2.04%  74.0 2143s
H 7817  3997                    4499.0000000 4408.00000  2.02%  76.4 2176s
  7958  4116 4425.31300  290  404 4499.00000 4408.00000  2.02%  78.5 2217s
  8126  4214 4438.61614  309  313 4499.00000 4408.00000  2.02%  80.3 2257s
  8284  4299 4430.17991  324  389 4499.00000 4408.00000  2.02%  81.8 2291s
  8423  4508 4456.43780  343  311 4499.00000 4408.00000  2.02%  83.6 2330s
  8680  4653 4455.11172  363  317 4499.00000 4408.00000  2.02%  84.8 2378s
  8953  4772 4455.58731  383  300 4499.00000 4408.00000  2.02%  86.2 2439s
H 9171  4816                    4497.0000000 4408.00000  1.98%  87.5 2505s
  9421  5029 4457.01528  425  325 4497.00000 4408.00000  1.98%  89.2 2564s
  9722  5275 4457.56618  450  333 4497.00000 4408.00000  1.98%  90.3 2626s
 10088  5467 4457.94365  477  317 4497.00000 4408.00000  1.98%  91.6 2693s
 10409  5364 4458.36027  503  297 4497.00000 4408.00000  1.98%  93.0 2780s
 10413  5669 4472.54396  503  280 4497.00000 4408.00000  1.98%  93.1 2841s
H10608  5489                    4496.0000000 4408.00000  1.96%  93.6 2842s
 10721  5851 4458.80420  529  271 4496.00000 4408.00000  1.96%  93.8 2987s
 11135  6179 4459.53406  565  287 4496.00000 4408.00000  1.96%  95.7 3080s
 11615  6346 4459.94495  596  273 4496.00000 4408.00000  1.96%  96.5 3138s
 11961  6605 4469.26224  617  298 4496.00000 4408.00000  1.96%  96.7 3229s
 12266  6996 4460.65424  644  348 4496.00000 4408.00000  1.96%  98.2 3314s
 12665  7375 4460.97597  668  318 4496.00000 4408.00000  1.96%  99.3 3416s
 13078  7626 4462.32471  697  335 4496.00000 4408.00000  1.96%   100 3494s
 13385  7968 4486.60108  713  286 4496.00000 4408.00000  1.96%   101 3580s
 13751  8033     cutoff  736      4496.00000 4408.00000  1.96%   101 3600s

Cutting planes:
  Learned: 1
  Gomory: 101
  Implied bound: 121
  Projected implied bound: 27
  MIR: 171
  StrongCG: 1
  Flow cover: 108
  Zero half: 93
  RLT: 29
  Relax-and-lift: 89

Explored 13838 nodes (1434823 simplex iterations) in 3606.75 seconds
Thread count was 4 (of 4 available processors)

Solution count 10: 4496 4497 4499 ... 4522

Time limit reached
Best objective 4.496000000000e+03, best bound 4.408000000000e+03, gap 1.9573%
Gurobi 9.1.2: time limit with a feasible solution; objective 4496
1434823 simplex iterations
13838 branch-and-cut nodes
No basis.
No dual variables returned.
sum{(i,j) in Arcs, k in K: i != j} c[i,j]*x[i,j,k] + sum{(i,j) in Arcs, 
  k in K} cto[i,j]*x[i,j,k] = 4496

sum{(i,j) in Arcs, k in K: i != j} c[i,j]*x[i,j,k] = 350

sum{(i,j) in Arcs, k in K: i != j} cto[i,j]*x[i,j,k] = 4146

COST = 4496

x  1 69 costo: 2.00, cto: 38.00, dano: 0.070000
x  5 60 costo: 2.00, cto: 38.00, dano: 0.070000
x  7 88 costo: 2.00, cto: 43.00, dano: 0.000000
x  8 18 costo: 3.00, cto: 40.00, dano: 0.000000
x 10 90 costo: 3.00, cto: 43.00, dano: 0.000000
x 18 48 costo: 4.00, cto: 40.00, dano: 0.000000
x 21 72 costo: 1.00, cto: 38.00, dano: 0.000000
x 30 70 costo: 2.00, cto: 39.00, dano: 0.080000
x 31 10 costo: 4.00, cto: 39.00, dano: 0.310000
x 36  8 costo: 5.00, cto: 41.00, dano: 0.000000
x 39 80 costo: 7.00, cto: 42.00, dano: 0.000000
x 46 36 costo: 3.00, cto: 40.00, dano: 0.000000
x 47 82 costo: 3.00, cto: 40.00, dano: 0.000000
x 48 47 costo: 2.00, cto: 39.00, dano: 0.100000
x 56 39 costo: 2.00, cto: 39.00, dano: 0.000000
x 59  5 costo: 2.00, cto: 43.00, dano: 0.000000
x 60 83 costo: 1.00, cto: 38.00, dano: 0.000000
x 69 21 costo: 7.00, cto: 43.00, dano: 0.000000
x 70  1 costo: 3.00, cto: 39.00, dano: 0.130000
x 72 56 costo: 2.00, cto: 39.00, dano: 0.000000
x 80  0 costo: 7.00, cto: 42.00, dano: 0.000000
x 82  7 costo: 2.00, cto: 42.00, dano: 0.000000
x 83 46 costo: 4.00, cto: 41.00, dano: 0.000000
x 88 31 costo: 2.00, cto: 39.00, dano: 0.080000
x 90 30 costo: 4.00, cto: 40.00, dano: 0.180000
x 95 99 costo: 2.00, cto: 39.00, dano: 0.000000
x 99 59 costo: 1.00, cto: 38.00, dano: 0.000000
x  0 95 costo: 8.00, cto: 40.00, dano: 0.550000
x  2 75 costo: 4.00, cto: 40.00, dano: 0.000000
x  4 54 costo: 2.00, cto: 39.00, dano: 0.000000
x 15 22 costo: 4.00, cto: 40.00, dano: 0.000000
x 22 73 costo: 2.00, cto: 39.00, dano: 0.000000
x 23 67 costo: 3.00, cto: 40.00, dano: 0.000000
x 24 29 costo: 2.00, cto: 39.00, dano: 0.120000
x 25 55 costo: 3.00, cto: 38.00, dano: 0.120000
x 29  0 costo: 9.00, cto: 43.00, dano: 0.000000
x 37 42 costo: 2.00, cto: 39.00, dano: 0.000000
x 41 74 costo: 3.00, cto: 39.00, dano: 0.120000
x 42 97 costo: 3.00, cto: 39.00, dano: 0.150000
x 43 57 costo: 3.00, cto: 40.00, dano: 0.000000
x 54 24 costo: 3.00, cto: 40.00, dano: 0.000000
x 55  4 costo: 2.00, cto: 39.00, dano: 0.000000
x 57 41 costo: 3.00, cto: 40.00, dano: 0.000000
x 67 25 costo: 4.00, cto: 40.00, dano: 0.000000
x 73  2 costo: 2.00, cto: 39.00, dano: 0.000000
x 74 15 costo: 4.00, cto: 41.00, dano: 0.000000
x 75 23 costo: 4.00, cto: 39.00, dano: 0.130000
x 87 43 costo: 4.00, cto: 40.00, dano: 0.000000
x 89 94 costo: 4.00, cto: 39.00, dano: 0.310000
x 92 98 costo: 2.00, cto: 38.00, dano: 0.120000
x 93 92 costo: 1.00, cto: 38.00, dano: 0.000000
x 94 93 costo: 3.00, cto: 39.00, dano: 0.130000
x 97 87 costo: 1.00, cto: 38.00, dano: 0.000000
x 98 37 costo: 0.00, cto: 38.00, dano: 0.000000
x  0 89 costo: 3.00, cto: 39.00, dano: 0.000000
x  9 71 costo: 3.00, cto: 43.00, dano: 0.000000
x 11 64 costo: 5.00, cto: 44.00, dano: 0.000000
x 19 62 costo: 4.00, cto: 39.00, dano: 0.150000
x 20 51 costo: 3.00, cto: 39.00, dano: 0.130000
x 28 53 costo: 2.00, cto: 39.00, dano: 0.120000
x 32 28 costo: 10.00, cto: 44.00, dano: 0.000000
x 33 79 costo: 2.00, cto: 39.00, dano: 0.200000
x 34  9 costo: 8.00, cto: 40.00, dano: 0.680000
x 35 65 costo: 5.00, cto: 40.00, dano: 0.200000
x 40 58 costo: 2.00, cto: 38.00, dano: 0.160000
x 49 19 costo: 5.00, cto: 40.00, dano: 0.200000
x 51 81 costo: 3.00, cto: 39.00, dano: 0.120000
x 53 40 costo: 2.00, cto: 39.00, dano: 0.000000
x 58  0 costo: 3.00, cto: 43.00, dano: 0.000000
x 62 11 costo: 4.00, cto: 39.00, dano: 0.310000
x 63 20 costo: 6.00, cto: 45.00, dano: 0.000000
x 64 63 costo: 5.00, cto: 44.00, dano: 0.000000
x 65 66 costo: 5.00, cto: 40.00, dano: 0.220000
x 66 32 costo: 5.00, cto: 44.00, dano: 0.000000
x 71 35 costo: 2.00, cto: 39.00, dano: 0.100000
x 78 34 costo: 2.00, cto: 39.00, dano: 0.200000
x 79 78 costo: 2.00, cto: 39.00, dano: 0.200000
x 81 33 costo: 1.00, cto: 38.00, dano: 0.080000
x  0 49 costo: 13.00, cto: 46.00, dano: 0.000000
x  3 76 costo: 3.00, cto: 39.00, dano: 0.230000
x  6 13 costo: 2.00, cto: 39.00, dano: 0.000000
x 12 68 costo: 2.00, cto: 39.00, dano: 0.000000
x 13 96 costo: 3.00, cto: 39.00, dano: 0.130000
x 14 38 costo: 3.00, cto: 40.00, dano: 0.000000
x 16 61 costo: 1.00, cto: 38.00, dano: 0.070000
x 17 45 costo: 2.00, cto: 39.00, dano: 0.000000
x 26 12 costo: 4.00, cto: 39.00, dano: 0.270000
x 27  6 costo: 5.00, cto: 40.00, dano: 0.230000
x 38 86 costo: 7.00, cto: 40.00, dano: 0.510000
x 44 16 costo: 2.00, cto: 39.00, dano: 0.000000
x 45 84 costo: 2.00, cto: 39.00, dano: 0.000000
x 50 27 costo: 5.00, cto: 40.00, dano: 0.220000
x 52  0 costo: 4.00, cto: 40.00, dano: 0.180000
x 61 17 costo: 3.00, cto: 39.00, dano: 0.150000
x 68  3 costo: 3.00, cto: 39.00, dano: 0.230000
x 76 77 costo: 1.00, cto: 42.00, dano: 0.000000
x 77 50 costo: 4.00, cto: 39.00, dano: 0.270000
x 84 52 costo: 8.00, cto: 41.00, dano: 0.330000
x 85 91 costo: 1.00, cto: 38.00, dano: 0.000000
x 86 44 costo: 2.00, cto: 39.00, dano: 0.000000
x 91 100 costo: 3.00, cto: 38.00, dano: 0.180000
x 96 85 costo: 2.00, cto: 39.00, dano: 0.000000
x 100 14 costo: 3.00, cto: 39.00, dano: 0.130000
x  0 26 costo: 3.00, cto: 40.00, dano: 0.000000
